Test: battleship-14-27-sat.cnf
Options: -no-inverting-opt -sym-var-bump
WARNING: for repeatability, setting FPU to use double precision
============================[ Problem Statistics ]=============================
|                                                                             |
|  Number of symmetries:           19                                         |
|  Number of invertingSyms:         0                                         |
|  Number of variables:           378                                         |
|  Number of clauses:            2653                                         |
|  Parse time:                   0.00 s                                       |
|                                                                             |
============================[ Search Statistics ]==============================
| Conflicts |          ORIGINAL         |          LEARNT          | Progress |
|           |    Vars  Clauses Literals |    Limit  Clauses Lit/Cl |          |
===============================================================================
|       100 |     378     2653    10206 |      972      128    136 |  0.001 % |
|       250 |     378     2653    10206 |     1070      304    125 |  0.001 % |
|       475 |     378     2653    10206 |     1177      587    124 |  0.001 % |
|       812 |     378     2653    10206 |     1294     1026    124 |  0.001 % |
|      1318 |     378     2653    10206 |     1424      934    115 |  0.001 % |
|      2077 |     378     2653    10206 |     1566     1235    132 |  0.001 % |
|      3216 |     378     2653    10206 |     1723     1017    133 |  0.001 % |
|      4924 |     378     2653    10206 |     1895     1421    134 |  0.001 % |
|      7486 |     378     2653    10206 |     2085     1521    140 |  0.001 % |
|     11330 |     378     2653    10206 |     2293     2172    160 |  0.001 % |
|     17096 |     378     2653    10206 |     2523     2470    176 |  0.001 % |
|     25745 |     378     2653    10206 |     2775     1569    178 |  0.001 % |
|     38719 |     378     2653    10206 |     3052     1839    176 |  0.001 % |
|     58180 |     378     2653    10206 |     3358     2625    171 |  0.001 % |
|     87372 |     378     2653    10206 |     3694     3359    169 |  0.001 % |
|    131161 |     378     2653    10206 |     4063     3646    168 |  0.001 % |
|    196845 |     378     2653    10206 |     4469     3310    155 |  0.001 % |
===============================================================================
restarts              : 572
conflicts             : 245435         (17396 /sec)
symconflicts          : 17816          (1263 /sec)
decisions             : 528286         (0.00 % random) (37444 /sec)
propagations          : 5573491        (395034 /sec)
sympropagations       : 68582          (4861 /sec)
conflict literals     : 42488095       (3.93 % deleted)
literals     : 42488095       (3.93 % deleted)

HEURISTIC USAGES
random                : 0           
activity w/ lookahead : 0           
activity no lookahead : 0           
original sp           : 528285      
sym count             : 0           

Memory used           : 13.00 MB
CPU time              : 14.1089 s

SATISFIABLE
